NAME : A-n10-6
DIMENSION : 10
VEHICLE NUMBER : 5
VEHICLE CAPACITY : 70
MAX POD NUMBER : 2
NODE_COORD_SECTION 
 1 31 73
 2 11 67
 3 52 96
 4 81 29
 5 97 62
 6 71 5
 7 6 56
 8 48 50
 9 91 17
 10 49 68
DEMAND_SECTION 
1 0 
2 19 
3 2 
4 12 
5 20 
6 6 
7 17 
8 8 
9 14 
10 2  
DEPOT_SECTION 
 1  
 -1  
EOF 
